c Reduced graph for r27 generated by Cyril Grelier
p edge 259 3019
e 1 3
e 1 16
e 1 26
e 1 28
e 1 34
e 1 42
e 1 55
e 1 69
e 1 73
e 1 92
e 1 112
e 1 113
e 1 144
e 1 145
e 1 147
e 1 162
e 1 170
e 1 178
e 1 181
e 1 184
e 1 190
e 2 4
e 2 10
e 2 13
e 2 35
e 2 40
e 2 52
e 2 69
e 2 86
e 2 114
e 2 127
e 2 134
e 2 146
e 2 163
e 2 166
e 2 167
e 2 201
e 2 217
e 2 218
e 2 225
e 2 230
e 2 235
e 2 238
e 2 249
e 2 253
e 3 12
e 3 16
e 3 28
e 3 36
e 3 38
e 3 39
e 3 41
e 3 55
e 3 57
e 3 69
e 3 83
e 3 92
e 3 99
e 3 112
e 3 150
e 3 162
e 3 170
e 3 184
e 3 190
e 3 194
e 3 258
e 4 9
e 4 10
e 4 13
e 4 15
e 4 40
e 4 47
e 4 71
e 4 77
e 4 124
e 4 146
e 4 163
e 4 168
e 4 171
e 4 206
e 4 218
e 4 225
e 4 230
e 4 235
e 4 238
e 4 253
e 5 19
e 5 22
e 5 24
e 5 44
e 5 87
e 5 92
e 5 98
e 5 102
e 5 106
e 5 111
e 5 130
e 5 134
e 5 146
e 5 152
e 5 175
e 5 202
e 5 211
e 5 214
e 6 11
e 6 19
e 6 31
e 6 61
e 6 62
e 6 72
e 6 75
e 6 78
e 6 95
e 6 108
e 6 122
e 6 132
e 6 142
e 6 164
e 6 165
e 6 172
e 6 192
e 6 203
e 6 215
e 6 216
e 6 217
e 6 225
e 6 231
e 6 232
e 6 247
e 6 256
e 6 257
e 6 259
e 7 28
e 7 34
e 7 65
e 7 74
e 7 80
e 7 83
e 7 86
e 7 94
e 7 97
e 7 103
e 7 126
e 7 132
e 7 138
e 7 153
e 7 161
e 7 174
e 7 182
e 7 187
e 7 207
e 7 238
e 7 245
e 7 248
e 7 259
e 8 17
e 8 88
e 8 89
e 8 102
e 8 110
e 8 126
e 8 129
e 8 131
e 8 149
e 8 150
e 8 151
e 8 154
e 8 155
e 8 158
e 8 172
e 8 201
e 8 221
e 8 223
e 8 229
e 8 240
e 8 257
e 9 15
e 9 33
e 9 47
e 9 71
e 9 77
e 9 84
e 9 99
e 9 103
e 9 106
e 9 107
e 9 116
e 9 124
e 9 131
e 9 142
e 9 168
e 9 171
e 9 179
e 9 206
e 9 224
e 9 236
e 10 13
e 10 24
e 10 29
e 10 40
e 10 46
e 10 60
e 10 80
e 10 100
e 10 112
e 10 136
e 10 146
e 10 158
e 10 163
e 10 165
e 10 208
e 10 218
e 10 225
e 10 226
e 10 230
e 10 235
e 10 237
e 10 238
e 10 253
e 11 12
e 11 19
e 11 61
e 11 62
e 11 72
e 11 76
e 11 78
e 11 95
e 11 104
e 11 108
e 11 118
e 11 129
e 11 132
e 11 136
e 11 142
e 11 159
e 11 164
e 11 167
e 11 173
e 11 174
e 11 181
e 11 197
e 11 203
e 11 219
e 11 225
e 11 256
e 11 257
e 12 36
e 12 38
e 12 39
e 12 41
e 12 57
e 12 76
e 12 83
e 12 99
e 12 104
e 12 118
e 12 129
e 12 136
e 12 150
e 12 159
e 12 167
e 12 173
e 12 174
e 12 181
e 12 194
e 12 197
e 12 219
e 12 258
e 13 40
e 13 79
e 13 81
e 13 93
e 13 94
e 13 101
e 13 146
e 13 162
e 13 163
e 13 195
e 13 209
e 13 210
e 13 216
e 13 218
e 13 225
e 13 230
e 13 235
e 13 236
e 13 238
e 13 253
e 13 254
e 14 16
e 14 20
e 14 23
e 14 30
e 14 33
e 14 43
e 14 60
e 14 67
e 14 89
e 14 114
e 14 137
e 14 144
e 14 149
e 14 156
e 14 164
e 14 183
e 14 188
e 14 189
e 14 230
e 14 232
e 14 251
e 15 35
e 15 39
e 15 47
e 15 59
e 15 70
e 15 71
e 15 77
e 15 82
e 15 124
e 15 128
e 15 151
e 15 168
e 15 171
e 15 206
e 15 210
e 15 228
e 15 244
e 15 246
e 15 251
e 16 20
e 16 23
e 16 28
e 16 30
e 16 33
e 16 43
e 16 55
e 16 69
e 16 89
e 16 92
e 16 112
e 16 137
e 16 156
e 16 162
e 16 170
e 16 183
e 16 184
e 16 188
e 16 189
e 16 190
e 16 230
e 16 232
e 16 251
e 17 37
e 17 48
e 17 50
e 17 75
e 17 88
e 17 89
e 17 105
e 17 110
e 17 126
e 17 140
e 17 150
e 17 154
e 17 158
e 17 173
e 17 179
e 17 193
e 17 201
e 17 211
e 17 218
e 17 223
e 17 240
e 17 257
e 18 31
e 18 45
e 18 52
e 18 57
e 18 58
e 18 62
e 18 66
e 18 74
e 18 101
e 18 116
e 18 119
e 18 148
e 18 161
e 18 169
e 18 175
e 18 184
e 18 191
e 18 204
e 18 214
e 18 223
e 18 252
e 19 22
e 19 24
e 19 61
e 19 62
e 19 72
e 19 78
e 19 95
e 19 98
e 19 102
e 19 108
e 19 130
e 19 132
e 19 134
e 19 142
e 19 164
e 19 175
e 19 203
e 19 211
e 19 225
e 19 256
e 19 257
e 20 23
e 20 30
e 20 33
e 20 37
e 20 42
e 20 43
e 20 46
e 20 77
e 20 89
e 20 93
e 20 125
e 20 137
e 20 143
e 20 156
e 20 160
e 20 169
e 20 183
e 20 188
e 20 189
e 20 194
e 20 220
e 20 230
e 20 232
e 20 241
e 20 251
e 20 256
e 21 26
e 21 51
e 21 54
e 21 61
e 21 63
e 21 64
e 21 90
e 21 105
e 21 156
e 21 157
e 21 168
e 21 170
e 21 176
e 21 185
e 21 207
e 21 227
e 21 231
e 21 235
e 21 240
e 21 241
e 21 242
e 21 246
e 21 249
e 21 252
e 22 24
e 22 56
e 22 66
e 22 97
e 22 98
e 22 102
e 22 120
e 22 130
e 22 133
e 22 134
e 22 175
e 22 177
e 22 192
e 22 211
e 22 220
e 22 228
e 22 243
e 22 253
e 23 25
e 23 30
e 23 33
e 23 38
e 23 43
e 23 49
e 23 53
e 23 54
e 23 89
e 23 109
e 23 137
e 23 152
e 23 156
e 23 166
e 23 171
e 23 183
e 23 188
e 23 189
e 23 230
e 23 232
e 23 245
e 23 251
e 24 29
e 24 46
e 24 60
e 24 80
e 24 98
e 24 100
e 24 102
e 24 112
e 24 130
e 24 134
e 24 136
e 24 158
e 24 165
e 24 175
e 24 208
e 24 211
e 24 226
e 24 237
e 25 38
e 25 49
e 25 53
e 25 54
e 25 63
e 25 68
e 25 76
e 25 88
e 25 109
e 25 115
e 25 122
e 25 125
e 25 152
e 25 166
e 25 171
e 25 180
e 25 190
e 25 199
e 25 234
e 25 244
e 25 245
e 26 34
e 26 42
e 26 61
e 26 63
e 26 64
e 26 73
e 26 90
e 26 105
e 26 113
e 26 144
e 26 145
e 26 147
e 26 156
e 26 168
e 26 178
e 26 181
e 26 249
e 27 36
e 27 43
e 27 53
e 27 58
e 27 70
e 27 72
e 27 84
e 27 98
e 27 117
e 27 119
e 27 120
e 27 157
e 27 159
e 27 160
e 27 180
e 27 187
e 27 196
e 27 205
e 27 212
e 27 213
e 27 226
e 27 229
e 27 255
e 28 55
e 28 65
e 28 69
e 28 74
e 28 92
e 28 103
e 28 112
e 28 126
e 28 153
e 28 162
e 28 170
e 28 174
e 28 184
e 28 187
e 28 190
e 28 238
e 28 245
e 28 248
e 28 259
e 29 45
e 29 46
e 29 60
e 29 68
e 29 71
e 29 79
e 29 80
e 29 95
e 29 100
e 29 112
e 29 121
e 29 127
e 29 136
e 29 137
e 29 141
e 29 147
e 29 158
e 29 165
e 29 176
e 29 177
e 29 202
e 29 208
e 29 226
e 29 237
e 29 248
e 29 255
e 30 33
e 30 43
e 30 44
e 30 81
e 30 89
e 30 91
e 30 123
e 30 133
e 30 137
e 30 156
e 30 183
e 30 188
e 30 189
e 30 191
e 30 205
e 30 208
e 30 221
e 30 222
e 30 230
e 30 232
e 30 234
e 30 251
e 31 45
e 31 58
e 31 75
e 31 116
e 31 122
e 31 161
e 31 165
e 31 169
e 31 172
e 31 175
e 31 184
e 31 191
e 31 192
e 31 215
e 31 216
e 31 217
e 31 223
e 31 231
e 31 232
e 31 247
e 31 259
e 32 50
e 32 73
e 32 78
e 32 85
e 32 90
e 32 91
e 32 100
e 32 107
e 32 109
e 32 117
e 32 118
e 32 124
e 32 135
e 32 163
e 32 182
e 32 185
e 32 188
e 32 196
e 32 198
e 32 199
e 32 200
e 32 204
e 32 209
e 32 233
e 32 243
e 32 247
e 33 43
e 33 84
e 33 89
e 33 99
e 33 103
e 33 106
e 33 107
e 33 116
e 33 131
e 33 137
e 33 142
e 33 156
e 33 179
e 33 183
e 33 188
e 33 189
e 33 224
e 33 230
e 33 232
e 33 236
e 33 251
e 34 42
e 34 73
e 34 80
e 34 83
e 34 86
e 34 94
e 34 97
e 34 113
e 34 132
e 34 138
e 34 144
e 34 145
e 34 147
e 34 161
e 34 178
e 34 181
e 34 182
e 34 207
e 35 39
e 35 52
e 35 59
e 35 69
e 35 70
e 35 82
e 35 86
e 35 114
e 35 127
e 35 128
e 35 134
e 35 151
e 35 166
e 35 167
e 35 201
e 35 210
e 35 217
e 35 228
e 35 244
e 35 246
e 35 249
e 35 251
e 36 38
e 36 39
e 36 41
e 36 43
e 36 57
e 36 58
e 36 72
e 36 83
e 36 99
e 36 117
e 36 120
e 36 150
e 36 157
e 36 180
e 36 187
e 36 194
e 36 213
e 36 226
e 36 229
e 36 258
e 37 42
e 37 46
e 37 48
e 37 50
e 37 75
e 37 77
e 37 93
e 37 105
e 37 125
e 37 140
e 37 143
e 37 160
e 37 169
e 37 173
e 37 179
e 37 193
e 37 194
e 37 211
e 37 218
e 37 220
e 37 241
e 37 256
e 38 39
e 38 41
e 38 49
e 38 53
e 38 54
e 38 57
e 38 83
e 38 99
e 38 109
e 38 150
e 38 152
e 38 166
e 38 171
e 38 194
e 38 245
e 38 258
e 39 41
e 39 57
e 39 59
e 39 70
e 39 82
e 39 83
e 39 99
e 39 128
e 39 150
e 39 151
e 39 194
e 39 210
e 39 228
e 39 244
e 39 246
e 39 251
e 39 258
e 40 49
e 40 59
e 40 121
e 40 138
e 40 146
e 40 163
e 40 186
e 40 218
e 40 219
e 40 222
e 40 224
e 40 225
e 40 230
e 40 235
e 40 238
e 40 253
e 41 47
e 41 51
e 41 57
e 41 83
e 41 99
e 41 108
e 41 115
e 41 139
e 41 140
e 41 145
e 41 150
e 41 153
e 41 183
e 41 186
e 41 194
e 41 233
e 41 239
e 41 254
e 41 258
e 42 46
e 42 73
e 42 77
e 42 93
e 42 113
e 42 125
e 42 143
e 42 144
e 42 145
e 42 147
e 42 160
e 42 169
e 42 178
e 42 181
e 42 194
e 42 220
e 42 241
e 42 256
e 43 58
e 43 72
e 43 89
e 43 117
e 43 120
e 43 137
e 43 156
e 43 157
e 43 180
e 43 183
e 43 187
e 43 188
e 43 189
e 43 213
e 43 226
e 43 229
e 43 230
e 43 232
e 43 251
e 44 81
e 44 87
e 44 91
e 44 92
e 44 106
e 44 111
e 44 123
e 44 133
e 44 146
e 44 152
e 44 191
e 44 202
e 44 205
e 44 208
e 44 214
e 44 221
e 44 222
e 44 234
e 45 58
e 45 68
e 45 71
e 45 79
e 45 95
e 45 116
e 45 121
e 45 127
e 45 137
e 45 141
e 45 147
e 45 161
e 45 169
e 45 175
e 45 176
e 45 177
e 45 184
e 45 191
e 45 202
e 45 223
e 45 248
e 45 255
e 46 60
e 46 77
e 46 80
e 46 93
e 46 100
e 46 112
e 46 125
e 46 136
e 46 143
e 46 158
e 46 160
e 46 165
e 46 169
e 46 194
e 46 208
e 46 220
e 46 226
e 46 237
e 46 241
e 46 256
e 47 51
e 47 71
e 47 77
e 47 108
e 47 115
e 47 124
e 47 139
e 47 140
e 47 145
e 47 153
e 47 168
e 47 171
e 47 183
e 47 186
e 47 206
e 47 233
e 47 239
e 47 254
e 48 50
e 48 75
e 48 85
e 48 105
e 48 111
e 48 140
e 48 173
e 48 178
e 48 179
e 48 189
e 48 193
e 48 211
e 48 212
e 48 218
e 48 227
e 48 250
e 48 258
e 49 53
e 49 54
e 49 59
e 49 109
e 49 121
e 49 138
e 49 152
e 49 166
e 49 171
e 49 186
e 49 219
e 49 222
e 49 224
e 49 245
e 50 73
e 50 75
e 50 78
e 50 100
e 50 105
e 50 124
e 50 135
e 50 140
e 50 173
e 50 179
e 50 185
e 50 188
e 50 193
e 50 196
e 50 198
e 50 199
e 50 209
e 50 211
e 50 218
e 50 243
e 51 54
e 51 108
e 51 115
e 51 139
e 51 140
e 51 145
e 51 153
e 51 157
e 51 170
e 51 176
e 51 183
e 51 185
e 51 186
e 51 207
e 51 227
e 51 231
e 51 233
e 51 235
e 51 239
e 51 240
e 51 241
e 51 242
e 51 246
e 51 252
e 51 254
e 52 57
e 52 62
e 52 66
e 52 69
e 52 74
e 52 86
e 52 101
e 52 114
e 52 119
e 52 127
e 52 134
e 52 148
e 52 166
e 52 167
e 52 201
e 52 204
e 52 214
e 52 217
e 52 249
e 52 252
e 53 54
e 53 70
e 53 84
e 53 98
e 53 109
e 53 119
e 53 152
e 53 159
e 53 160
e 53 166
e 53 171
e 53 196
e 53 205
e 53 212
e 53 245
e 53 255
e 54 109
e 54 152
e 54 157
e 54 166
e 54 170
e 54 171
e 54 176
e 54 185
e 54 207
e 54 227
e 54 231
e 54 235
e 54 240
e 54 241
e 54 242
e 54 245
e 54 246
e 54 252
e 55 69
e 55 92
e 55 110
e 55 112
e 55 123
e 55 128
e 55 135
e 55 141
e 55 143
e 55 162
e 55 170
e 55 184
e 55 190
e 55 197
e 55 213
e 55 215
e 55 239
e 55 250
e 56 65
e 56 66
e 56 87
e 56 96
e 56 97
e 56 113
e 56 120
e 56 133
e 56 155
e 56 177
e 56 192
e 56 193
e 56 195
e 56 200
e 56 203
e 56 206
e 56 220
e 56 228
e 56 237
e 56 242
e 56 243
e 56 253
e 57 62
e 57 66
e 57 74
e 57 83
e 57 99
e 57 101
e 57 119
e 57 148
e 57 150
e 57 194
e 57 204
e 57 214
e 57 252
e 57 258
e 58 72
e 58 116
e 58 117
e 58 120
e 58 157
e 58 161
e 58 169
e 58 175
e 58 180
e 58 184
e 58 187
e 58 191
e 58 213
e 58 223
e 58 226
e 58 229
e 59 70
e 59 82
e 59 121
e 59 128
e 59 138
e 59 151
e 59 186
e 59 210
e 59 219
e 59 222
e 59 224
e 59 228
e 59 244
e 59 246
e 59 251
e 60 67
e 60 80
e 60 100
e 60 112
e 60 114
e 60 136
e 60 144
e 60 149
e 60 158
e 60 164
e 60 165
e 60 208
e 60 226
e 60 237
e 61 62
e 61 63
e 61 64
e 61 72
e 61 78
e 61 90
e 61 95
e 61 105
e 61 108
e 61 132
e 61 142
e 61 156
e 61 164
e 61 168
e 61 203
e 61 225
e 61 249
e 61 256
e 61 257
e 62 66
e 62 72
e 62 74
e 62 78
e 62 95
e 62 101
e 62 108
e 62 119
e 62 132
e 62 142
e 62 148
e 62 164
e 62 203
e 62 204
e 62 214
e 62 225
e 62 252
e 62 256
e 62 257
e 63 64
e 63 68
e 63 76
e 63 88
e 63 90
e 63 105
e 63 115
e 63 122
e 63 125
e 63 156
e 63 168
e 63 180
e 63 190
e 63 199
e 63 234
e 63 244
e 63 249
e 64 67
e 64 82
e 64 90
e 64 96
e 64 104
e 64 105
e 64 130
e 64 139
e 64 148
e 64 154
e 64 156
e 64 168
e 64 198
e 64 249
e 65 74
e 65 87
e 65 96
e 65 103
e 65 113
e 65 126
e 65 153
e 65 155
e 65 174
e 65 187
e 65 193
e 65 195
e 65 200
e 65 203
e 65 206
e 65 237
e 65 238
e 65 242
e 65 245
e 65 248
e 65 259
e 66 74
e 66 97
e 66 101
e 66 119
e 66 120
e 66 133
e 66 148
e 66 177
e 66 192
e 66 204
e 66 214
e 66 220
e 66 228
e 66 243
e 66 252
e 66 253
e 67 82
e 67 96
e 67 104
e 67 114
e 67 130
e 67 139
e 67 144
e 67 148
e 67 149
e 67 154
e 67 164
e 67 198
e 68 71
e 68 76
e 68 79
e 68 88
e 68 95
e 68 115
e 68 121
e 68 122
e 68 125
e 68 127
e 68 137
e 68 141
e 68 147
e 68 176
e 68 177
e 68 180
e 68 190
e 68 199
e 68 202
e 68 234
e 68 244
e 68 248
e 68 255
e 69 86
e 69 92
e 69 112
e 69 114
e 69 127
e 69 134
e 69 162
e 69 166
e 69 167
e 69 170
e 69 184
e 69 190
e 69 201
e 69 217
e 69 249
e 70 82
e 70 84
e 70 98
e 70 119
e 70 128
e 70 151
e 70 159
e 70 160
e 70 196
e 70 205
e 70 210
e 70 212
e 70 228
e 70 244
e 70 246
e 70 251
e 70 255
e 71 77
e 71 79
e 71 95
e 71 121
e 71 124
e 71 127
e 71 137
e 71 141
e 71 147
e 71 168
e 71 171
e 71 176
e 71 177
e 71 202
e 71 206
e 71 248
e 71 255
e 72 78
e 72 95
e 72 108
e 72 117
e 72 120
e 72 132
e 72 142
e 72 157
e 72 164
e 72 180
e 72 187
e 72 203
e 72 213
e 72 225
e 72 226
e 72 229
e 72 256
e 72 257
e 73 78
e 73 100
e 73 113
e 73 124
e 73 135
e 73 144
e 73 145
e 73 147
e 73 178
e 73 181
e 73 185
e 73 188
e 73 196
e 73 198
e 73 199
e 73 209
e 73 243
e 74 101
e 74 103
e 74 119
e 74 126
e 74 148
e 74 153
e 74 174
e 74 187
e 74 204
e 74 214
e 74 238
e 74 245
e 74 248
e 74 252
e 74 259
e 75 105
e 75 122
e 75 140
e 75 165
e 75 172
e 75 173
e 75 179
e 75 192
e 75 193
e 75 211
e 75 215
e 75 216
e 75 217
e 75 218
e 75 231
e 75 232
e 75 247
e 75 259
e 76 88
e 76 104
e 76 115
e 76 118
e 76 122
e 76 125
e 76 129
e 76 136
e 76 159
e 76 167
e 76 173
e 76 174
e 76 180
e 76 181
e 76 190
e 76 197
e 76 199
e 76 219
e 76 234
e 76 244
e 77 93
e 77 124
e 77 125
e 77 143
e 77 160
e 77 168
e 77 169
e 77 171
e 77 194
e 77 206
e 77 220
e 77 241
e 77 256
e 78 95
e 78 100
e 78 108
e 78 124
e 78 132
e 78 135
e 78 142
e 78 164
e 78 185
e 78 188
e 78 196
e 78 198
e 78 199
e 78 203
e 78 209
e 78 225
e 78 243
e 78 256
e 78 257
e 79 81
e 79 93
e 79 94
e 79 95
e 79 101
e 79 121
e 79 127
e 79 137
e 79 141
e 79 147
e 79 162
e 79 176
e 79 177
e 79 195
e 79 202
e 79 209
e 79 210
e 79 216
e 79 236
e 79 248
e 79 254
e 79 255
e 80 83
e 80 86
e 80 94
e 80 97
e 80 100
e 80 112
e 80 132
e 80 136
e 80 138
e 80 158
e 80 161
e 80 165
e 80 182
e 80 207
e 80 208
e 80 226
e 80 237
e 81 91
e 81 93
e 81 94
e 81 101
e 81 123
e 81 133
e 81 162
e 81 191
e 81 195
e 81 205
e 81 208
e 81 209
e 81 210
e 81 216
e 81 221
e 81 222
e 81 234
e 81 236
e 81 254
e 82 96
e 82 104
e 82 128
e 82 130
e 82 139
e 82 148
e 82 151
e 82 154
e 82 198
e 82 210
e 82 228
e 82 244
e 82 246
e 82 251
e 83 86
e 83 94
e 83 97
e 83 99
e 83 132
e 83 138
e 83 150
e 83 161
e 83 182
e 83 194
e 83 207
e 83 258
e 84 98
e 84 99
e 84 103
e 84 106
e 84 107
e 84 116
e 84 119
e 84 131
e 84 142
e 84 159
e 84 160
e 84 179
e 84 196
e 84 205
e 84 212
e 84 224
e 84 236
e 84 255
e 85 90
e 85 91
e 85 107
e 85 109
e 85 111
e 85 117
e 85 118
e 85 163
e 85 178
e 85 182
e 85 189
e 85 200
e 85 204
e 85 212
e 85 227
e 85 233
e 85 247
e 85 250
e 85 258
e 86 94
e 86 97
e 86 114
e 86 127
e 86 132
e 86 134
e 86 138
e 86 161
e 86 166
e 86 167
e 86 182
e 86 201
e 86 207
e 86 217
e 86 249
e 87 92
e 87 96
e 87 106
e 87 111
e 87 113
e 87 146
e 87 152
e 87 155
e 87 193
e 87 195
e 87 200
e 87 202
e 87 203
e 87 206
e 87 214
e 87 237
e 87 242
e 88 89
e 88 110
e 88 115
e 88 122
e 88 125
e 88 126
e 88 150
e 88 154
e 88 158
e 88 180
e 88 190
e 88 199
e 88 201
e 88 223
e 88 234
e 88 240
e 88 244
e 88 257
e 89 110
e 89 126
e 89 137
e 89 150
e 89 154
e 89 156
e 89 158
e 89 183
e 89 188
e 89 189
e 89 201
e 89 223
e 89 230
e 89 232
e 89 240
e 89 251
e 89 257
e 90 91
e 90 105
e 90 107
e 90 109
e 90 117
e 90 118
e 90 156
e 90 163
e 90 168
e 90 182
e 90 200
e 90 204
e 90 233
e 90 247
e 90 249
e 91 107
e 91 109
e 91 117
e 91 118
e 91 123
e 91 133
e 91 163
e 91 182
e 91 191
e 91 200
e 91 204
e 91 205
e 91 208
e 91 221
e 91 222
e 91 233
e 91 234
e 91 247
e 92 106
e 92 111
e 92 112
e 92 146
e 92 152
e 92 162
e 92 170
e 92 184
e 92 190
e 92 202
e 92 214
e 93 94
e 93 101
e 93 125
e 93 143
e 93 160
e 93 162
e 93 169
e 93 194
e 93 195
e 93 209
e 93 210
e 93 216
e 93 220
e 93 236
e 93 241
e 93 254
e 93 256
e 94 97
e 94 101
e 94 132
e 94 138
e 94 161
e 94 162
e 94 182
e 94 195
e 94 207
e 94 209
e 94 210
e 94 216
e 94 236
e 94 254
e 95 108
e 95 121
e 95 127
e 95 132
e 95 137
e 95 141
e 95 142
e 95 147
e 95 164
e 95 176
e 95 177
e 95 202
e 95 203
e 95 225
e 95 248
e 95 255
e 95 256
e 95 257
e 96 104
e 96 113
e 96 130
e 96 139
e 96 148
e 96 154
e 96 155
e 96 193
e 96 195
e 96 198
e 96 200
e 96 203
e 96 206
e 96 237
e 96 242
e 97 120
e 97 132
e 97 133
e 97 138
e 97 161
e 97 177
e 97 182
e 97 192
e 97 207
e 97 220
e 97 228
e 97 243
e 97 253
e 98 102
e 98 119
e 98 130
e 98 134
e 98 159
e 98 160
e 98 175
e 98 196
e 98 205
e 98 211
e 98 212
e 98 255
e 99 103
e 99 106
e 99 107
e 99 116
e 99 131
e 99 142
e 99 150
e 99 179
e 99 194
e 99 224
e 99 236
e 99 258
e 100 112
e 100 124
e 100 135
e 100 136
e 100 158
e 100 165
e 100 185
e 100 188
e 100 196
e 100 198
e 100 199
e 100 208
e 100 209
e 100 226
e 100 237
e 100 243
e 101 119
e 101 148
e 101 162
e 101 195
e 101 204
e 101 209
e 101 210
e 101 214
e 101 216
e 101 236
e 101 252
e 101 254
e 102 129
e 102 130
e 102 131
e 102 134
e 102 149
e 102 151
e 102 155
e 102 172
e 102 175
e 102 211
e 102 221
e 102 229
e 103 106
e 103 107
e 103 116
e 103 126
e 103 131
e 103 142
e 103 153
e 103 174
e 103 179
e 103 187
e 103 224
e 103 236
e 103 238
e 103 245
e 103 248
e 103 259
e 104 118
e 104 129
e 104 130
e 104 136
e 104 139
e 104 148
e 104 154
e 104 159
e 104 167
e 104 173
e 104 174
e 104 181
e 104 197
e 104 198
e 104 219
e 105 140
e 105 156
e 105 168
e 105 173
e 105 179
e 105 193
e 105 211
e 105 218
e 105 249
e 106 107
e 106 111
e 106 116
e 106 131
e 106 142
e 106 146
e 106 152
e 106 179
e 106 202
e 106 214
e 106 224
e 106 236
e 107 109
e 107 116
e 107 117
e 107 118
e 107 131
e 107 142
e 107 163
e 107 179
e 107 182
e 107 200
e 107 204
e 107 224
e 107 233
e 107 236
e 107 247
e 108 115
e 108 132
e 108 139
e 108 140
e 108 142
e 108 145
e 108 153
e 108 164
e 108 183
e 108 186
e 108 203
e 108 225
e 108 233
e 108 239
e 108 254
e 108 256
e 108 257
e 109 117
e 109 118
e 109 152
e 109 163
e 109 166
e 109 171
e 109 182
e 109 200
e 109 204
e 109 233
e 109 245
e 109 247
e 110 123
e 110 126
e 110 128
e 110 135
e 110 141
e 110 143
e 110 150
e 110 154
e 110 158
e 110 197
e 110 201
e 110 213
e 110 215
e 110 223
e 110 239
e 110 240
e 110 250
e 110 257
e 111 146
e 111 152
e 111 178
e 111 189
e 111 202
e 111 212
e 111 214
e 111 227
e 111 250
e 111 258
e 112 136
e 112 158
e 112 162
e 112 165
e 112 170
e 112 184
e 112 190
e 112 208
e 112 226
e 112 237
e 113 144
e 113 145
e 113 147
e 113 155
e 113 178
e 113 181
e 113 193
e 113 195
e 113 200
e 113 203
e 113 206
e 113 237
e 113 242
e 114 127
e 114 134
e 114 144
e 114 149
e 114 164
e 114 166
e 114 167
e 114 201
e 114 217
e 114 249
e 115 122
e 115 125
e 115 139
e 115 140
e 115 145
e 115 153
e 115 180
e 115 183
e 115 186
e 115 190
e 115 199
e 115 233
e 115 234
e 115 239
e 115 244
e 115 254
e 116 131
e 116 142
e 116 161
e 116 169
e 116 175
e 116 179
e 116 184
e 116 191
e 116 223
e 116 224
e 116 236
e 117 118
e 117 120
e 117 157
e 117 163
e 117 180
e 117 182
e 117 187
e 117 200
e 117 204
e 117 213
e 117 226
e 117 229
e 117 233
e 117 247
e 118 129
e 118 136
e 118 159
e 118 163
e 118 167
e 118 173
e 118 174
e 118 181
e 118 182
e 118 197
e 118 200
e 118 204
e 118 219
e 118 233
e 118 247
e 119 148
e 119 159
e 119 160
e 119 196
e 119 204
e 119 205
e 119 212
e 119 214
e 119 252
e 119 255
e 120 133
e 120 157
e 120 177
e 120 180
e 120 187
e 120 192
e 120 213
e 120 220
e 120 226
e 120 228
e 120 229
e 120 243
e 120 253
e 121 127
e 121 137
e 121 138
e 121 141
e 121 147
e 121 176
e 121 177
e 121 186
e 121 202
e 121 219
e 121 222
e 121 224
e 121 248
e 121 255
e 122 125
e 122 165
e 122 172
e 122 180
e 122 190
e 122 192
e 122 199
e 122 215
e 122 216
e 122 217
e 122 231
e 122 232
e 122 234
e 122 244
e 122 247
e 122 259
e 123 128
e 123 133
e 123 135
e 123 141
e 123 143
e 123 191
e 123 197
e 123 205
e 123 208
e 123 213
e 123 215
e 123 221
e 123 222
e 123 234
e 123 239
e 123 250
e 124 135
e 124 168
e 124 171
e 124 185
e 124 188
e 124 196
e 124 198
e 124 199
e 124 206
e 124 209
e 124 243
e 125 143
e 125 160
e 125 169
e 125 180
e 125 190
e 125 194
e 125 199
e 125 220
e 125 234
e 125 241
e 125 244
e 125 256
e 126 150
e 126 153
e 126 154
e 126 158
e 126 174
e 126 187
e 126 201
e 126 223
e 126 238
e 126 240
e 126 245
e 126 248
e 126 257
e 126 259
e 127 134
e 127 137
e 127 141
e 127 147
e 127 166
e 127 167
e 127 176
e 127 177
e 127 201
e 127 202
e 127 217
e 127 248
e 127 249
e 127 255
e 128 135
e 128 141
e 128 143
e 128 151
e 128 197
e 128 210
e 128 213
e 128 215
e 128 228
e 128 239
e 128 244
e 128 246
e 128 250
e 128 251
e 129 131
e 129 136
e 129 149
e 129 151
e 129 155
e 129 159
e 129 167
e 129 172
e 129 173
e 129 174
e 129 181
e 129 197
e 129 219
e 129 221
e 129 229
e 130 134
e 130 139
e 130 148
e 130 154
e 130 175
e 130 198
e 130 211
e 131 142
e 131 149
e 131 151
e 131 155
e 131 172
e 131 179
e 131 221
e 131 224
e 131 229
e 131 236
e 132 138
e 132 142
e 132 161
e 132 164
e 132 182
e 132 203
e 132 207
e 132 225
e 132 256
e 132 257
e 133 177
e 133 191
e 133 192
e 133 205
e 133 208
e 133 220
e 133 221
e 133 222
e 133 228
e 133 234
e 133 243
e 133 253
e 134 166
e 134 167
e 134 175
e 134 201
e 134 211
e 134 217
e 134 249
e 135 141
e 135 143
e 135 185
e 135 188
e 135 196
e 135 197
e 135 198
e 135 199
e 135 209
e 135 213
e 135 215
e 135 239
e 135 243
e 135 250
e 136 158
e 136 159
e 136 165
e 136 167
e 136 173
e 136 174
e 136 181
e 136 197
e 136 208
e 136 219
e 136 226
e 136 237
e 137 141
e 137 147
e 137 156
e 137 176
e 137 177
e 137 183
e 137 188
e 137 189
e 137 202
e 137 230
e 137 232
e 137 248
e 137 251
e 137 255
e 138 161
e 138 182
e 138 186
e 138 207
e 138 219
e 138 222
e 138 224
e 139 140
e 139 145
e 139 148
e 139 153
e 139 154
e 139 183
e 139 186
e 139 198
e 139 233
e 139 239
e 139 254
e 140 145
e 140 153
e 140 173
e 140 179
e 140 183
e 140 186
e 140 193
e 140 211
e 140 218
e 140 233
e 140 239
e 140 254
e 141 143
e 141 147
e 141 176
e 141 177
e 141 197
e 141 202
e 141 213
e 141 215
e 141 239
e 141 248
e 141 250
e 141 255
e 142 164
e 142 179
e 142 203
e 142 224
e 142 225
e 142 236
e 142 256
e 142 257
e 143 160
e 143 169
e 143 194
e 143 197
e 143 213
e 143 215
e 143 220
e 143 239
e 143 241
e 143 250
e 143 256
e 144 145
e 144 147
e 144 149
e 144 164
e 144 178
e 144 181
e 145 147
e 145 153
e 145 178
e 145 181
e 145 183
e 145 186
e 145 233
e 145 239
e 145 254
e 146 152
e 146 163
e 146 202
e 146 214
e 146 218
e 146 225
e 146 230
e 146 235
e 146 238
e 146 253
e 147 176
e 147 177
e 147 178
e 147 181
e 147 202
e 147 248
e 147 255
e 148 154
e 148 198
e 148 204
e 148 214
e 148 252
e 149 151
e 149 155
e 149 164
e 149 172
e 149 221
e 149 229
e 150 154
e 150 158
e 150 194
e 150 201
e 150 223
e 150 240
e 150 257
e 150 258
e 151 155
e 151 172
e 151 210
e 151 221
e 151 228
e 151 229
e 151 244
e 151 246
e 151 251
e 152 166
e 152 171
e 152 202
e 152 214
e 152 245
e 153 174
e 153 183
e 153 186
e 153 187
e 153 233
e 153 238
e 153 239
e 153 245
e 153 248
e 153 254
e 153 259
e 154 158
e 154 198
e 154 201
e 154 223
e 154 240
e 154 257
e 155 172
e 155 193
e 155 195
e 155 200
e 155 203
e 155 206
e 155 221
e 155 229
e 155 237
e 155 242
e 156 168
e 156 183
e 156 188
e 156 189
e 156 230
e 156 232
e 156 249
e 156 251
e 157 170
e 157 176
e 157 180
e 157 185
e 157 187
e 157 207
e 157 213
e 157 226
e 157 227
e 157 229
e 157 231
e 157 235
e 157 240
e 157 241
e 157 242
e 157 246
e 157 252
e 158 165
e 158 201
e 158 208
e 158 223
e 158 226
e 158 237
e 158 240
e 158 257
e 159 160
e 159 167
e 159 173
e 159 174
e 159 181
e 159 196
e 159 197
e 159 205
e 159 212
e 159 219
e 159 255
e 160 169
e 160 194
e 160 196
e 160 205
e 160 212
e 160 220
e 160 241
e 160 255
e 160 256
e 161 169
e 161 175
e 161 182
e 161 184
e 161 191
e 161 207
e 161 223
e 162 170
e 162 184
e 162 190
e 162 195
e 162 209
e 162 210
e 162 216
e 162 236
e 162 254
e 163 182
e 163 200
e 163 204
e 163 218
e 163 225
e 163 230
e 163 233
e 163 235
e 163 238
e 163 247
e 163 253
e 164 203
e 164 225
e 164 256
e 164 257
e 165 172
e 165 192
e 165 208
e 165 215
e 165 216
e 165 217
e 165 226
e 165 231
e 165 232
e 165 237
e 165 247
e 165 259
e 166 167
e 166 171
e 166 201
e 166 217
e 166 245
e 166 249
e 167 173
e 167 174
e 167 181
e 167 197
e 167 201
e 167 217
e 167 219
e 167 249
e 168 171
e 168 206
e 168 249
e 169 175
e 169 184
e 169 191
e 169 194
e 169 220
e 169 223
e 169 241
e 169 256
e 170 176
e 170 184
e 170 185
e 170 190
e 170 207
e 170 227
e 170 231
e 170 235
e 170 240
e 170 241
e 170 242
e 170 246
e 170 252
e 171 206
e 171 245
e 172 192
e 172 215
e 172 216
e 172 217
e 172 221
e 172 229
e 172 231
e 172 232
e 172 247
e 172 259
e 173 174
e 173 179
e 173 181
e 173 193
e 173 197
e 173 211
e 173 218
e 173 219
e 174 181
e 174 187
e 174 197
e 174 219
e 174 238
e 174 245
e 174 248
e 174 259
e 175 184
e 175 191
e 175 211
e 175 223
e 176 177
e 176 185
e 176 202
e 176 207
e 176 227
e 176 231
e 176 235
e 176 240
e 176 241
e 176 242
e 176 246
e 176 248
e 176 252
e 176 255
e 177 192
e 177 202
e 177 220
e 177 228
e 177 243
e 177 248
e 177 253
e 177 255
e 178 181
e 178 189
e 178 212
e 178 227
e 178 250
e 178 258
e 179 193
e 179 211
e 179 218
e 179 224
e 179 236
e 180 187
e 180 190
e 180 199
e 180 213
e 180 226
e 180 229
e 180 234
e 180 244
e 181 197
e 181 219
e 182 200
e 182 204
e 182 207
e 182 233
e 182 247
e 183 186
e 183 188
e 183 189
e 183 230
e 183 232
e 183 233
e 183 239
e 183 251
e 183 254
e 184 190
e 184 191
e 184 223
e 185 188
e 185 196
e 185 198
e 185 199
e 185 207
e 185 209
e 185 227
e 185 231
e 185 235
e 185 240
e 185 241
e 185 242
e 185 243
e 185 246
e 185 252
e 186 219
e 186 222
e 186 224
e 186 233
e 186 239
e 186 254
e 187 213
e 187 226
e 187 229
e 187 238
e 187 245
e 187 248
e 187 259
e 188 189
e 188 196
e 188 198
e 188 199
e 188 209
e 188 230
e 188 232
e 188 243
e 188 251
e 189 212
e 189 227
e 189 230
e 189 232
e 189 250
e 189 251
e 189 258
e 190 199
e 190 234
e 190 244
e 191 205
e 191 208
e 191 221
e 191 222
e 191 223
e 191 234
e 192 215
e 192 216
e 192 217
e 192 220
e 192 228
e 192 231
e 192 232
e 192 243
e 192 247
e 192 253
e 192 259
e 193 195
e 193 200
e 193 203
e 193 206
e 193 211
e 193 218
e 193 237
e 193 242
e 194 220
e 194 241
e 194 256
e 194 258
e 195 200
e 195 203
e 195 206
e 195 209
e 195 210
e 195 216
e 195 236
e 195 237
e 195 242
e 195 254
e 196 198
e 196 199
e 196 205
e 196 209
e 196 212
e 196 243
e 196 255
e 197 213
e 197 215
e 197 219
e 197 239
e 197 250
e 198 199
e 198 209
e 198 243
e 199 209
e 199 234
e 199 243
e 199 244
e 200 203
e 200 204
e 200 206
e 200 233
e 200 237
e 200 242
e 200 247
e 201 217
e 201 223
e 201 240
e 201 249
e 201 257
e 202 214
e 202 248
e 202 255
e 203 206
e 203 225
e 203 237
e 203 242
e 203 256
e 203 257
e 204 214
e 204 233
e 204 247
e 204 252
e 205 208
e 205 212
e 205 221
e 205 222
e 205 234
e 205 255
e 206 237
e 206 242
e 207 227
e 207 231
e 207 235
e 207 240
e 207 241
e 207 242
e 207 246
e 207 252
e 208 221
e 208 222
e 208 226
e 208 234
e 208 237
e 209 210
e 209 216
e 209 236
e 209 243
e 209 254
e 210 216
e 210 228
e 210 236
e 210 244
e 210 246
e 210 251
e 210 254
e 211 218
e 212 227
e 212 250
e 212 255
e 212 258
e 213 215
e 213 226
e 213 229
e 213 239
e 213 250
e 214 252
e 215 216
e 215 217
e 215 231
e 215 232
e 215 239
e 215 247
e 215 250
e 215 259
e 216 217
e 216 231
e 216 232
e 216 236
e 216 247
e 216 254
e 216 259
e 217 231
e 217 232
e 217 247
e 217 249
e 217 259
e 218 225
e 218 230
e 218 235
e 218 238
e 218 253
e 219 222
e 219 224
e 220 228
e 220 241
e 220 243
e 220 253
e 220 256
e 221 222
e 221 229
e 221 234
e 222 224
e 222 234
e 223 240
e 223 257
e 224 236
e 225 230
e 225 235
e 225 238
e 225 253
e 225 256
e 225 257
e 226 229
e 226 237
e 227 231
e 227 235
e 227 240
e 227 241
e 227 242
e 227 246
e 227 250
e 227 252
e 227 258
e 228 243
e 228 244
e 228 246
e 228 251
e 228 253
e 230 232
e 230 235
e 230 238
e 230 251
e 230 253
e 231 232
e 231 235
e 231 240
e 231 241
e 231 242
e 231 246
e 231 247
e 231 252
e 231 259
e 232 247
e 232 251
e 232 259
e 233 239
e 233 247
e 233 254
e 234 244
e 235 238
e 235 240
e 235 241
e 235 242
e 235 246
e 235 252
e 235 253
e 236 254
e 237 242
e 238 245
e 238 248
e 238 253
e 238 259
e 239 250
e 239 254
e 240 241
e 240 242
e 240 246
e 240 252
e 240 257
e 241 242
e 241 246
e 241 252
e 241 256
e 242 246
e 242 252
e 243 253
e 244 246
e 244 251
e 245 248
e 245 259
e 246 251
e 246 252
e 247 259
e 248 255
e 248 259
e 250 258
e 256 257
